sat
(
  (define-fun PriceProv2 () Int
    532)
  (define-fun PriceProv6 () Int
    210)
  (define-fun StorageProv5 () Int
    2000)
  (define-fun C5_VM3 () Int
    0)
  (define-fun MemProv6 () Int
    7500)
  (define-fun C1_VM5 () Int
    0)
  (define-fun C3_VM3 () Int
    0)
  (define-fun C4_VM6 () Int
    0)
  (define-fun StorageProv3 () Int
    6001)
  (define-fun StorageProv4 () Int
    2000)
  (define-fun C4_VM3 () Int
    0)
  (define-fun PriceProv3 () Int
    0)
  (define-fun PriceProv1 () Int
    210)
  (define-fun ProcProv5 () Int
    8)
  (define-fun C5_VM6 () Int
    1)
  (define-fun C3_VM1 () Int
    0)
  (define-fun VM4Type () Int
    182)
  (define-fun PriceProv5 () Int
    460)
  (define-fun StorageProv1 () Int
    2000)
  (define-fun C4_VM5 () Int
    0)
  (define-fun StorageProv6 () Int
    2000)
  (define-fun ProcProv3 () Int
    9)
  (define-fun VM5Type () Int
    136)
  (define-fun C1_VM2 () Int
    0)
  (define-fun C5_VM2 () Int
    0)
  (define-fun C2_VM6 () Int
    1)
  (define-fun C5_VM5 () Int
    1)
  (define-fun MemProv2 () Int
    30000)
  (define-fun C1_VM3 () Int
    0)
  (define-fun MemProv5 () Int
    15000)
  (define-fun ProcProv4 () Int
    4)
  (define-fun C3_VM4 () Int
    0)
  (define-fun C2_VM5 () Int
    0)
  (define-fun VM3Type () Int
    0)
  (define-fun C2_VM2 () Int
    0)
  (define-fun C1_VM6 () Int
    0)
  (define-fun C3_VM6 () Int
    0)
  (define-fun VM2Type () Int
    134)
  (define-fun MemProv1 () Int
    7500)
  (define-fun MemProv4 () Int
    7500)
  (define-fun MemProv3 () Int
    61001)
  (define-fun C2_VM3 () Int
    0)
  (define-fun C4_VM1 () Int
    0)
  (define-fun C3_VM2 () Int
    0)
  (define-fun C2_VM4 () Int
    1)
  (define-fun ProcProv1 () Int
    4)
  (define-fun ProcProv2 () Int
    8)
  (define-fun ProcProv6 () Int
    4)
  (define-fun VM6Type () Int
    182)
  (define-fun C3_VM5 () Int
    1)
  (define-fun C5_VM1 () Int
    0)
  (define-fun C4_VM4 () Int
    0)
  (define-fun PriceProv4 () Int
    210)
  (define-fun StorageProv2 () Int
    2000)
  (define-fun C4_VM2 () Int
    1)
  (define-fun VM1Type () Int
    182)
  (define-fun C5_VM4 () Int
    1)
  (define-fun C1_VM4 () Int
    0)
  (define-fun C2_VM1 () Int
    0)
  (define-fun C1_VM1 () Int
    1)
)
(objectives
 ((+ 0 PriceProv1 PriceProv2 PriceProv3 PriceProv4 PriceProv5 PriceProv6) 1622)
)
(:added-eqs                   207351
 :arith-eq-adapter            75672
 :arith-bound-propagations-lp 2107675
 :arith-conflicts             345
 :arith-diseq                 1320845
 :arith-fixed-eqs             2075
 :arith-lower                 1961524
 :arith-make-feasible         79881
 :arith-max-columns           350
 :arith-max-rows              20
 :arith-upper                 714571
 :binary-propagations         1957489
 :bv-bit2core                 17833
 :bv-dynamic-diseqs           1172492
 :bv->core-eq                 1156
 :conflicts                   6292
 :decisions                   175275
 :del-clause                  1217135
 :final-checks                101
 :max-memory                  67.22
 :memory                      64.38
 :minimized-lits              267557
 :mk-bool-var                 156859
 :mk-clause                   1217282
 :mk-clause-binary            6275
 :num-allocs                  1758047020
 :num-checks                  78
 :pb-conflicts                104
 :pb-predicates               18
 :pb-propagations             3345
 :pb-resolves                 99
 :propagations                5896666
 :restarts                    50
 :rlimit-count                37544110
 :solve-eqs-elim-vars         1
 :solve-eqs-steps             10
 :time                        2.47
 :total-time                  2.49)
